c 11_3_checker_6cl.cnf
c
c field = 11
c formula set type = 3_checker_6cl
c
p cnf 6 14
14 
16 
18 
-13 
-10 
-22 
15 
17 
19 
-12 
-11 
-23 
14 
16 
18 
-23 
-12 
-24 
15 
17 
19 
-22 
-13 
-25 
16 
18 
22 
-15 
-12 
-24 
17 
19 
23 
-14 
-13 
-25 
16 
18 
22 
-25 
-14 
-26 
17 
19 
23 
-24 
-15 
-27 
18 
22 
24 
-17 
-14 
-26 
19 
23 
25 
-16 
-15 
-27 
18 
22 
24 
-27 
-16 
-28 
19 
23 
25 
-26 
-17 
-29 
22 
24 
26 
-19 
-16 
-28 
23 
25 
27 
-18 
-17 
-29 
